Route #1: 1 8 54 15 54 36 9 14 47 1 
Route #2: 1 5 1 
Route #3: 1 2 44 42 43 65 23 2 1 
Route #4: 1 35 28 14 20 54 12 39 59 1 
Route #5: 1 46 30 6 16 58 14 55 14 53 1 
Route #6: 1 52 64 24 2 63 29 3 1 
Route #7: 1 18 33 26 33 45 4 17 64 1 
Route #8: 1 6 37 38 6 48 22 49 31 1 
Route #9: 1 7 34 64 50 25 51 33 41 1 
Route #10: 1 13 33 10 40 59 11 59 27 1 
Cost 811.0
